results_rootrelaxation/bin012_090_007.srr.sol
solution status: optimal solution found
objective value:                                   31
_var765_                                            1 	(obj:0)
_var804_                                            1 	(obj:2)
_var825_                                            1 	(obj:2)
_var857_                                            1 	(obj:5)
_var910_                                            1 	(obj:2)
_var917_                                            1 	(obj:2)
_var944_                                            1 	(obj:3)
_var951_                                            1 	(obj:4)
_var955_                                            1 	(obj:2)
_var973_                                            1 	(obj:5)
_var976_                                            1 	(obj:4)
